&CONTROL
   tstress          = .true.
   tprnfor          = .true.
   disk_io          = 'low'
/
&SYSTEM
   ecutwfc          = 29
   ecutrho          = 143
   occupations      = 'smearing'
   degauss          = 0.02
   smearing         = 'mp'
   ntyp             = 1
   nat              = 13
   ibrav            = 0
/
&ELECTRONS
/
&IONS
/
&CELL
/

ATOMIC_SPECIES
Al 26.9815385 Al.pbe-n-rrkjus_psl.1.0.1.UPF

K_POINTS automatic
4 4 1  0 0 0

CELL_PARAMETERS angstrom
5.72756492761104 0.00000000000000 0.00000000000000
2.86378246380552 4.96021672913593 0.00000000000000
0.00000000000000 0.00000000000000 16.67653718043597

ATOMIC_POSITIONS angstrom
Al 1.4318912319 0.8267027882 5.0317405740 
Al 4.2956736957 0.8328486832 5.0014738594 
Al 2.8691049650 3.3037382053 5.0014738594 
Al 5.7222424264 3.3037382053 5.0014738594 
Al -0.0087706468 1.6584693117 7.3615260461 
Al 2.8725531106 1.6584693117 7.3615260461 
Al 1.4318912319 4.1335139409 7.2815479414 
Al 4.2956736957 4.1233864704 7.3615260461 
Al -0.0457493111 -0.0264133771 9.6378468101 
Al 2.9095317749 -0.0264133771 9.6378468101 
Al 1.4318912319 2.5329351187 9.6378468101 
Al 4.2956736957 2.4801083646 9.8505881363 
Al 1.4318912319 0.8267027882 11.5693434645 

